unsat
(define-fun f ((x (_ BitVec 64))) (_ BitVec 64) (let ((_let_1 (shesh x))) (let ((_let_2 (bvand #b0000000000000000000000000000000000000000000000000000000000000001 _let_1))) (im (bvand #b0000000000000000000000000000000000000000000000000000000000000001 (bvnot x)) (im _let_2 _let_1 (bvnot #b0000000000000000000000000000000000000000000000000000000000000001)) (im _let_2 _let_1 (bvnot #b0000000000000000000000000000000000000000000000000000000000000000))))))
0.60user 0.00system 0:00.60elapsed 100%CPU (0avgtext+0avgdata 35372maxresident)k
16inputs+8outputs (0major+3518minor)pagefaults 0swaps
